cvc5/1118.smt2
(set-option :produce-unsat-cores true) ; enable generation of unsat cores
(set-option :produce-models true) ; enable model generation
(set-logic ALL)

(define-fun get_split_length ((x String) (d String) (limit Int)) Int
  (ite
    (> limit 0)
    (ite (< (str.num_splits x d) limit)
         (str.num_splits x d)
         limit)
    (str.num_splits x d)
  )
)

(define-fun get_split_element ((x String) (d String) (limit Int) (i Int)) String
  (ite
    (and (> limit 0)
         (= i (- limit 1))
         (>= (str.num_splits x d) limit))
    (str.split_rest x d (- limit 1))
    (str.split_at x d i)
  )
)

(declare-sort var1368 0)
(declare-sort void 0)
(declare-sort Iterator 0)
(declare-sort ClassObject 0)
(define-fun substring/850833817 ((s String) (begin Int)) String (str.substr s begin (- (str.len s) begin)))
(declare-const null-String String)
(declare-const var3490 String) ; Statement: r0 := @parameter0: java.lang.String 
(assert (not (= var3490 null-String)))
(assert (and true (and (>= 2 0) (>= (str.len var3490) 2))))
(define-const var2440 String (substring/850833817 var3490 2)) ; Statement: $r1 = virtualinvoke r0.<java.lang.String: java.lang.String substring(int)>(2) 
; split operation: var3409 = var2440.split("=") ; Statement: r2 = virtualinvoke $r1.<java.lang.String: java.lang.String[] split(java.lang.String)>("=") 
(define-const var1879 Int 0) ; Statement: i1 = 0 
(assert true) ; Non Conditional
(define-const var1421 Int (get_split_length var2440 "=" -1)) ; Statement: $i0 = lengthof r2 
 ; Statement: if i1 >= $i0 goto return r2 
(assert (>= var1879 var1421)) ; Cond: i1 >= $i0 
 ; Statement: return r2 
(check-sat)
; {substring/850833817=([java.lang.String, int], java.lang.String)}
; {var3490=r0, var1368=null_type, var2440=$r1, var3409=r2, var1879=i1, var1421=$i0}
; {r0=var3490, null_type=var1368, $r1=var2440, r2=var3409, i1=var1879, $i0=var1421}
;seq <java.lang.String: java.lang.String substring(int)>;	<java.lang.String: java.lang.String[] split(java.lang.String)>
;cnt {"<java.lang.String: java.lang.String substring(int)>": 1,"<java.lang.String: java.lang.String[] split(java.lang.String)>": 1}
;stmts r0 := @parameter0: java.lang.String;	$r1 = virtualinvoke r0.<java.lang.String: java.lang.String substring(int)>(2);	r2 = virtualinvoke $r1.<java.lang.String: java.lang.String[] split(java.lang.String)>("=");	i1 = 0;	$i0 = lengthof r2;	if i1 >= $i0 goto return r2;	return r2
;block_num 3
(get-model)
